34 28
1 44
6 122
17 942
8 328
6 60
12 648
7 305
7 705
10 343
13 771
4 559
20 366
17 555
11 767
8 149
20 656
2 737
11 441
22 248
1 170
3 734
23 13
2 4
24 577
21 444
14 740
3 810
14 797
1 12
19 378
25 661
4 342
18 210
2 51
